
******************************************************************************
This program contains Ipopt, a library for large-scale nonlinear optimization.
 Ipopt is released as open source code under the Eclipse Public License (EPL).
         For more information visit http://projects.coin-or.org/Ipopt
******************************************************************************

This is Ipopt version 3.12.6, running with linear solver ma57.

Number of nonzeros in equality constraint Jacobian...:    64773
Number of nonzeros in inequality constraint Jacobian.:        0
Number of nonzeros in Lagrangian Hessian.............:    13691

Reallocating memory for MA57: lfact (532738)
Total number of variables............................:    12002
                     variables with only lower bounds:        5
                variables with lower and upper bounds:        0
                     variables with only upper bounds:        0
Total number of equality constraints.................:    11997
Total number of inequality constraints...............:        0
        inequality constraints with only lower bounds:        0
   inequality constraints with lower and upper bounds:        0
        inequality constraints with only upper bounds:        0

iter    objective    inf_pr   inf_du lg(mu)  ||d||  lg(rg) alpha_du alpha_pr  ls
   0  0.0000000e+00 4.00e+00 8.45e-01  -1.0 0.00e+00    -  0.00e+00 0.00e+00   0
   1  4.2706809e-01 3.97e-01 1.33e+00  -1.0 4.82e+00    -  7.44e-01 1.00e+00h  1
   2  3.8986037e-01 1.44e-01 2.91e+00  -1.0 9.38e-01   0.0 3.11e-01 1.00e+00h  1
   3  3.8783376e-01 4.63e-03 4.33e-01  -1.0 2.07e-01   0.4 1.00e+00 1.00e+00h  1
   4  3.8583453e-01 5.32e-05 1.74e-02  -1.7 1.83e-02  -0.1 1.00e+00 1.00e+00h  1
   5  3.2991564e-02 2.40e-01 4.06e-02  -3.8 1.79e+00    -  5.84e-01 1.00e+00f  1
   6  9.6405132e-03 8.29e-02 3.60e-03  -3.8 1.36e+00    -  8.10e-01 1.00e+00h  1
   7  9.5204534e-03 7.97e-03 9.25e-05  -3.8 3.36e-01    -  1.00e+00 1.00e+00h  1
   8  9.1743452e-03 4.51e-02 2.01e-05  -3.8 6.60e-01    -  1.00e+00 1.00e+00h  1
   9  9.1805796e-03 2.59e-03 1.69e-06  -3.8 1.04e-01    -  1.00e+00 1.00e+00h  1
iter    objective    inf_pr   inf_du lg(mu)  ||d||  lg(rg) alpha_du alpha_pr  ls
  10  9.1792131e-03 3.19e-06 2.02e-09  -3.8 3.12e-03    -  1.00e+00 1.00e+00h  1
  11  9.0327569e-03 8.45e-03 4.57e-06  -5.7 2.53e-01    -  9.23e-01 9.67e-01h  1
  12  9.0241572e-03 8.88e-06 3.86e-08  -5.7 7.19e-03    -  1.00e+00 1.00e+00h  1
  13  9.0222925e-03 1.33e-06 4.95e-10  -8.6 2.88e-03    -  1.00e+00 1.00e+00h  1
  14  9.0222924e-03 1.81e-12 2.59e-14  -8.6 2.30e-06    -  1.00e+00 1.00e+00h  1

Number of Iterations....: 14

                                   (scaled)                 (unscaled)
Objective...............:   9.0222923543919406e-03    9.0222923543919406e-03
Dual infeasibility......:   2.5876870091146031e-14    2.5876870091146031e-14
Constraint violation....:   1.8105517085587053e-12    1.8105517085587053e-12
Complementarity.........:   2.5059058009316887e-09    2.5059058009316887e-09
Overall NLP error.......:   2.5059058009316887e-09    2.5059058009316887e-09


Number of objective function evaluations             = 15
Number of objective gradient evaluations             = 15
Number of equality constraint evaluations            = 15
Number of inequality constraint evaluations          = 0
Number of equality constraint Jacobian evaluations   = 15
Number of inequality constraint Jacobian evaluations = 0
Number of Lagrangian Hessian evaluations             = 14
Total CPU secs in IPOPT (w/o function evaluations)   =      0.607
Total CPU secs in NLP function evaluations           =      0.127

EXIT: Optimal Solution Found.
Note: The following floating-point exceptions are signalling: IEEE_INVALID_FLAG

************************ CUTEst statistics ************************


 Package used            :  IPOPT
 Problem                 :  METHANOL  
 # variables             =           12005
 # constraints           =           11997
 # objective functions   =        0.3100000E+02
 # objective gradients   =        0.1600000E+02
 # objective Hessians    =        0.1500000E+02
 # Hessian-vector prdct  =        0.0000000E+00
 # constraints functions =        0.3200000E+02
 # constraints gradients =        0.1700000E+02
 # constraints Hessians  =        0.1500000E+02
 Exit code               =               0
 Final f                 =   0.9022292E-02
 Set up time             =            0.63 seconds
 Solve time              =            1.98 seconds


******************************************************************

System Time =       0.5320000052 s.
